dates = {'2021-10-15','2021-10-16','2021-10-17','2021-10-18','2021-10-19','2021-10-20','2021-10-21','2021-10-22','2021-10-23','2021-10-24'};

daysOfWeek = [Friday,Saturday,Sunday,Monday,Tuesday,Wednesday,Thursday,Friday,Saturday,Sunday];

% For this week, how many people will be here.
numPeople = [29,29,29,29,32,32,46,35,35,41];

% Physical workers need 50 to 100 % more nutrients per day.
numPhysicalWorkers = [16.5,16.5,16.5,16.5,18.5,18.5,20.5,20.5,20.5,20.5];

% Males need +25% more nutrients per day.
numMen = [25,25,25,25,27,27,41,41,30,36];

% Num people who do not eat categories. contains = {none, meat, milk, gluten, egg, nut, seed, sugars}
numRefusals = [| 0,2,0,0,0,0,0,0 | 0,2,0,0,0,0,0,0 | 0,2,0,0,0,0,0,0 | 0,2,0,0,0,0,0,0 | 0,0,0,0,0,0,0,0 | 0,0,0,0,0,0,0,0 | 0,0,2,3,2,0,0,0 | 0,0,1,0,0,1,0,0 | 0,0,1,0,0,1,0,0 | 0,0,0,0,0,0,2,2 |];

